17	4
24	23	27	21	
0	0	0	0	0	3	2	3	4	
8	5	4	10	10	2	10	17	
6	0	5	6	0	3	5	17	17	
4	7	7	8	0	3	6	8	17	
4	0	3	7	5	3	6	7	17	
200	0	5	5	0	1	17	
75	3	4	5	10	3	9	14	17	
125	10	7	7	2	2	11	17	
75	5	0	1	0	3	12	17	17	
100	4	5	0	10	1	17	
25	3	7	0	10	2	17	17	
250	0	3	8	0	1	13	
2	0	5	7	0	2	15	17	
7	1	6	8	5	2	15	16	
5	6	3	0	9	2	17	17	
2	0	1	4	8	3	17	17	17	
0	0	0	0	0	0	
